************************************************************************
file with basedata            : cm223_.bas
initial value random generator: 28931
************************************************************************
projects                      :  1
jobs (incl. supersource/sink ):  18
horizon                       :  96
RESOURCES
  - renewable                 :  2   R
  - nonrenewable              :  2   N
  - doubly constrained        :  0   D
************************************************************************
PROJECT INFORMATION:
pronr.  #jobs rel.date duedate tardcost  MPM-Time
    1     16      0       23        6       23
************************************************************************
PRECEDENCE RELATIONS:
jobnr.    #modes  #successors   successors
   1        1          3           2   3   4
   2        2          2           6  10
   3        2          3           5   7   8
   4        2          2           7  13
   5        2          3          10  11  14
   6        2          2           7   9
   7        2          1          17
   8        2          2          12  13
   9        2          2          11  14
  10        2          2          15  16
  11        2          2          12  13
  12        2          2          15  17
  13        2          2          15  16
  14        2          2          16  17
  15        2          1          18
  16        2          1          18
  17        2          1          18
  18        1          0        
************************************************************************
REQUESTS/DURATIONS:
jobnr. mode duration  R 1  R 2  N 1  N 2
------------------------------------------------------------------------
  1      1     0       0    0    0    0
  2      1     3       5   10    4    0
         2     8       5    6    4    0
  3      1     1       8    9    8    0
         2     3       7    6    7    0
  4      1     3       8    6    3    0
         2     7       5    6    0    2
  5      1     1       4    6    6    0
         2     8       3    4    4    0
  6      1     3       7    6    9    0
         2     9       4    6    3    0
  7      1     5       4    3    6    0
         2     7       2    3    0    7
  8      1     6      10    6    0    4
         2     7       6    5    0    2
  9      1     2       7    5    4    0
         2     3       7    4    0    3
 10      1     1       7    6    0   10
         2     2       7    6    0    7
 11      1     2       1    9    0    7
         2     6       1    8    0    3
 12      1     8       7    4   10    0
         2     8       6    5    0    6
 13      1     1       6    4    5    0
         2     2       5    2    0    4
 14      1     1       7    1    3    0
         2     4       6    1    0    6
 15      1     5       6    8    0    3
         2     9       2    6    0    3
 16      1     5       6    2    7    0
         2     9       4    2    0   10
 17      1     1       7    8    0    6
         2     4       6    7    0    3
 18      1     0       0    0    0    0
************************************************************************
RESOURCEAVAILABILITIES:
  R 1  R 2  N 1  N 2
   22   23   53   56
************************************************************************
